100 100 100
50
94 25 72
11 84 96
36 10 34
72 26 71
64 73 56
81 22 97
30 23 17
46 27 47
67 9 67
69 1 98
88 69 64
47 95 99
20 95 93
23 8 32
67 73 55
69 46 95
67 40 85
70 32 91
90 25 96
45 100 84
90 34 82
93 93 38
82 43 95
98 38 97
69 90 72
66 90 25
81 33 88
37 10 21
84 17 69
97 11 99
74 37 74
84 27 73
51 97 51
38 74 95
23 42 26
72 86 64
6 86 67
86 25 88
5 74 88
92 90 10
92 12 70
24 80 93
99 50 74
66 77 86
47 82 77
92 41 76
93 10 99
92 80 39
96 3 92
88 21 91
